4 
5  23 47 
6  02 17 32 47 
7  02 17 32 47 
8  02 17 32 47 
9  02 17 32 47 
10  02 17 32 47 
11  02 17 32 47 
12  02 17 32 47 
13  02 17 34 49 
14  04 19 34 49 
15  04 19 34 49 
16  04 19 34 49 
17  04 19 34 49 
18  04 19 34 49 
19  04 18 32 47 
20  02 17 32 47 
21  02 17 32 47 
22  02 17 38 53 
23  08 23 
0 
